110
32
14
137
44
671
122
29
33
30
29
65
112
0
102
200
78
49
17
69
80
18
16
51
51
27
57
101
22
41
55
69
72
98
33
20
61
226
47
213
29
53
286
70
67
19
161
108
27
33
37
30
62
80
315
765
730
76
67
48
183
606
49
55
95
21
234
29
84
111
37
265
84
0
429
41
150
33
493
21
58
47
44
36
28
102
47
31
351
22
0
23
0
344
587
46
31
30
94
34
